

*************************************************************

   NEOS Server Version 6.0
   Job#     : 15892851
   Password : ASvUnaMY
   User     : 
   Solver   : milp:CPLEX:AMPL
   Start    : 2025-04-16 04:30:47
   End      : 2025-04-16 04:30:51
   Host     : prod-sub-1.neos-server.org

   Disclaimer:

   This information is provided without any express or
   implied warranty. In particular, there is no warranty
   of any kind concerning the fitness of this
   information for any particular purpose.

   Announcements:
*************************************************************
You are using the solver cplexamp.
Checking ampl.mod for cplex_options...
Checking ampl.com for cplex_options...
Executing AMPL.
processing data.
processing commands.
Executing on prod-exec-5.neos-server.org
C = 9

set N := 1 2 3 4 5;

:   P    W   B    :=
1   10   3   2
2    5   2   3
3    7   3   2
4    6   4   2
5    1   1   5
;

subject to C_capacity:
	3*X[1] + 2*X[2] + 3*X[3] + 4*X[4] + X[5] <= 9;

maximize objective_function:
	10*X[1] + 5*X[2] + 7*X[3] + 6*X[4] + X[5];


"option presolve 10;" used, but "option presolve 2;" would suffice.
5 variables, all integer
1 constraint, all linear; 5 nonzeros
	1 inequality constraint
1 linear objective; 5 nonzeros.

CPLEX 22.1.2:   tech:threads = 4
  tech:outlev = 1
 - Version identifier: 22.1.2.0 | 2024-11-26 | 0edbb82fd
 - CPXPARAM_Threads                                 4
 - CPXPARAM_MIP_Display                             3
 - Found incumbent of value 0.000000 after 0.00 sec. (0.00 ticks)
 - Tried aggregator 1 time.
 - MIP Presolve added 1 rows and 1 columns.
 - Reduced MIP has 2 rows, 6 columns, and 10 nonzeros.
 - Reduced MIP has 0 binaries, 6 generals, 0 SOSs, and 0 indicators.
 - Presolve time = 0.00 sec. (0.00 ticks)
 - Tried aggregator 1 time.
 - MIP Presolve eliminated 1 rows and 1 columns.
 - MIP Presolve added 1 rows and 1 columns.
 - Reduced MIP has 2 rows, 6 columns, and 10 nonzeros.
 - Reduced MIP has 0 binaries, 6 generals, 0 SOSs, and 0 indicators.
 - Presolve time = 0.00 sec. (0.01 ticks)
 - MIP emphasis: balance optimality and feasibility.
 - MIP search method: dynamic search.
 - Parallel mode: deterministic, using up to 4 threads.
 - Root relaxation solution time = 0.00 sec. (0.00 ticks)
 - 
        Nodes                                         Cuts/
 -    Node  Left     Objective  IInf  Best Integer    Best Bound    ItCnt     Gap

 - *     0+    0                            0.0000       66.0000              --- 
 - Found incumbent of value 0.000000 after 0.01 sec. (0.02 ticks)
 - *     0+    0                           27.0000       66.0000           144.44%
 - Found incumbent of value 27.000000 after 0.01 sec. (0.02 ticks)
 -       0     0       27.5000     1       27.0000       27.5000        1    1.85%
 -       0     0        cutoff             27.0000       27.5000        1    1.85%
 - Elapsed time = 0.01 sec. (0.03 ticks, tree = 0.01 MB, solutions = 2)
 - 
Root node processing (before b&c):
 -   Real time             =    0.01 sec. (0.03 ticks)
 - Parallel b&c, 4 threads:
 -   Real time             =    0.00 sec. (0.00 ticks)
 -   Sync time (average)   =    0.00 sec.
 -   Wait time (average)   =    0.00 sec.
 -                           ------------
 - Total (root+branch&cut) =    0.01 sec. (0.03 ticks)
CPLEX 22.1.2: optimal solution; objective 27
1 simplex iterations
objective_function = 27

X [*] :=
1  2
2  0
3  1
4  0
5  0
;

NEOS Server Home
